proyfinal/src/viki/013/experimentInOfficeAgust.take6.output/dfde2db4-9a05-4764-b3da-425b09b8cc21.als.dat
{'cnf.clauses': '118081',
 'cnf.totvars': '69608',
 'conflict literals': '669',
 'conflicts': '96',
 'decisions': '4169',
 'memused.mb': '17.19',
 'outcome': 'UNSAT',
 'propagations': '137147',
 'restarts': '1',
 'solver.msecs': 42,
 'task.msecs': 85}
