proyfinal/src/viki/013/experimentInOfficeAgust.take6.output/dfde2db4-9a05-4764-b3da-425b09b8cc21.als.out
Reading from standard input... Use '--help' for help.
============================[ Problem Statistics ]=============================
|                                                                             |
|  Number of variables:         69608                                         |
|  Number of clauses:          118081                                         |
|  Parse time:                   0.02 s                                       |
|                                                                             |
============================[ Search Statistics ]==============================
| Conflicts |          ORIGINAL         |          LEARNT          | Progress |
|           |    Vars  Clauses Literals |    Limit  Clauses Lit/Cl |          |
===============================================================================
===============================================================================
restarts              : 1
conflicts             : 96             (2256 /sec)
decisions             : 4169           (0.00 % random) (97963 /sec)
propagations          : 137147         (3222666 /sec)
conflict literals     : 669            (25.50 % deleted)
Memory used           : 17.19 MB
CPU time              : 0.042557 s

UNSATISFIABLE
